p cnf 22 12
-10 21 0
-22 11 5 0
9 12 20 0
11 -21 -4 -7 9 18 14 -8 -22 -16 2 1 -17 -6 -13 -19 -5 -15 3 20 -12 0
8 20 13 -12 19 11 2 9 18 17 5 -3 0
4 1 0
-13 10 -16 0
-3 18 7 20 8 6 12 13 -5 -14 -2 -17 -4 1 -21 11 9 -19 0
-11 -4 -16 -20 -19 -14 7 -8 13 -1 10 -3 0
4 -1 -3 0
14 16 9 21 19 -17 0
17 22 7 18 10 3 14 -21 -20 -15 -2 -1 19 -16 -5 13 -4 -11 -9 -12 8 6 0
